Mg B                                    
   1.00000000000000     
     3.0764214280959932    0.0000000000000000    0.0000000000000000
    -1.5382107140479966    2.6642591094779320    0.0000000000000000
     0.0000000000000000    0.0000000000000000    3.5233372748542005
   1   2
Direct
  0.0000000000000000  0.0000000000000000  0.0000000000000000
  0.3333333333333357  0.6666666666666643  0.5000000000000000
  0.6666666666666643  0.3333333333333357  0.5000000000000000
 
  0.00000000E+00  0.00000000E+00  0.00000000E+00
  0.00000000E+00  0.00000000E+00  0.00000000E+00
  0.00000000E+00  0.00000000E+00  0.00000000E+00
