opti molecule conp prop c6
title
example of a molecular crystal - urea
end
cell
   5.550830   5.550830   4.695612  90.000038  89.999963  89.999803 1 1 1 1 1 1
fractional   16
C    core  0.00000000   0.50000000   0.32600000    0.380000 0 0 0
C    core  0.49999920   0.00000080   0.61502595    0.380000 1 1 1
O    core  0.00000000   0.49999998   0.58816619   -0.380000 1 1 1
O    core  0.50000040  -0.00000039   0.35285659   -0.380000 1 1 1
N    core  0.14293176   0.64293184   0.18101006   -0.830000 1 1 1
N    core  0.85706814   0.35706821   0.18101006   -0.830000 1 1 1
N    core  0.64293288   0.85706713   0.76001372   -0.830000 1 1 1
N    core  0.35706811   0.14293188   0.76001345   -0.830000 1 1 1
H    core  0.26167656   0.76167659   0.27731462    0.415000 1 1 1
H    core  0.73832344   0.23832347   0.27731458    0.415000 1 1 1
H    core  0.76167757   0.73832243   0.66370978    0.415000 1 1 1
H    core  0.23832195   0.26167805   0.66370971    0.415000 1 1 1
H    core  0.13785881   0.63785890   0.96043229    0.415000 1 1 1
H    core  0.86214114   0.36214121   0.96043228    0.415000 1 1 1
H    core  0.63785790   0.86214210  -0.01940859    0.415000 1 1 1
H    core  0.36214109   0.13785891  -0.01940832    0.415000 1 1 1
morse intra
C    core O    core      6.288000   2.060000  1.23000  0.0000  1.600
morse intra
C    core N    core      4.206000   2.000000  1.32000  0.0000  1.600
morse intra
H    core N    core      3.816000   2.280000  1.02600  0.0000  1.600
lennard 12  6 inter
C    core O    core   39031.570000      35.266000  0.000 40.000
lennard 12  6 inter
C    core N    core  112494.667000      55.387000  0.000 40.000
lennard 12  6 inter
O    core O    core   11833.864000      21.633000  0.000 40.000
lennard 12  6 inter
N    core O    core   34106.919000      33.977000  0.000 40.000
lennard 12  6 inter
N    core N    core   98301.108000      53.362000  0.000 40.000
lennard 12  6 inter
C    core C    core  128737.614000      57.488000  0.000 40.000
three
C    core N    core O    core   5.897000 121.000000  1.600  1.600  3.000
three
N    core H    core C    core   3.252000 120.000000  1.400  1.600  2.600
three
N    core H    core H    core   2.862000 120.000000  1.400  1.400  2.300
three
C    core N    core N    core   8.846000 118.000000  1.600  1.600  2.800
torsion
O    cor C    cor N    cor H    cor   0.260200  -2  1.40  1.40  1.30  0.00
torsion
N    cor C    cor N    cor H    cor   0.002170  -2  1.60  1.60  1.30  0.00
torsion
O    cor C    cor N    cor N    cor   0.434000  -2  1.60  1.60  3.00  0.00
