efg pot eem bond 
cell
4.91485  4.91485  5.40629  90.0000  90.0000 120.0000 
frac
Si 0.46820 0.00000 0.333333 
O  0.41310 0.26610 0.213100
space
152
