conv md
cell
4.211986   4.211986   4.211986  90.000000  90.000000  90.000000 
fractional    8
Mg   core  0.00000000   0.00000000   0.00000000 
Mg   core  0.00000000   0.50000000   0.50000000 
Mg   core  0.50000000   0.00000000   0.50000000 
Mg   core  0.50000000   0.50000000   0.00000000 
O    core  0.50000000   0.50000000   0.50000000 
O    core  0.50000000   0.00000000   0.00000000 
O    core  0.00000000   0.50000000   0.00000000 
O    core  0.00000000   0.00000000   0.50000000 
O    shel  0.50000000   0.50000000   0.50000000 
O    shel  0.50000000   0.00000000   0.00000000 
O    shel  0.00000000   0.50000000   0.00000000 
O    shel  0.00000000   0.00000000   0.50000000 
species   2
Mg    core    2.000000
O     core    0.869000
O     shel   -2.869000
buck
O    shel Mg   core    1295.553402 0.300000    0.00000  0.000 12.000
buck
O    shel O    shel   22764.000000 0.149000   27.88000  0.000 12.000
spring
O  74.92
super 2 2 2
integrator leapfrog verlet
ensemble nvt 0.1
temperature 300
equil 0.5 ps
produ 0.5 ps
timestep 0.001 ps
sample 0.0050 ps
iterations 5 
