opti conp phon noden prop prt_eam 
cell
4.07 4.07 4.07 90 90 90
frac
Au 0.0 0.0 0.0
space
225
species
Au core  0.000
library glue
dump example39.grs
