opti 
switch rfo gnorm 0.01
pcell 
4.198998 0 
cartesian  192
Mg core    0.52487    0.00000    0.00000    2.00000 1.00 1 1 1
Mg core    0.73990    0.00000    4.19898    2.00000 1.00 1 1 1
Mg core    1.04975    0.00000    8.39796    2.00000 1.00 1 1 1
Mg core   -0.73990    0.00000   12.59693    2.00000 1.00 1 1 1
Mg core    0.30985    4.19898    0.00000    2.00000 1.00 1 1 1
Mg core    0.52487    4.19898    4.19898    2.00000 1.00 1 1 1
Mg core    1.04974    4.19898    8.39796    2.00000 1.00 0 0 0
Mg core   -0.52488    4.19898   12.59693    2.00000 1.00 1 1 1
Mg core    0.00000    8.39796    0.00000    2.00000 1.00 1 1 1
Mg core    0.00001    8.39796    4.19898    2.00000 1.00 0 0 0
Mg core    0.52487    8.39796    8.39796    2.00000 1.00 0 0 0
Mg core   -0.00001    8.39796   12.59693    2.00000 1.00 0 0 0
Mg core   -0.30985   12.59693    0.00000    2.00000 1.00 1 1 1
Mg core   -0.52487   12.59693    4.19898    2.00000 1.00 1 1 1
Mg core   -1.04974   12.59693    8.39796    2.00000 1.00 0 0 0
Mg core    0.52487   12.59693   12.59693    2.00000 1.00 1 1 1
Mg core    0.52487    2.09949    2.09949    2.00000 1.00 1 1 1
Mg core    0.83472    2.09949    6.29847    2.00000 1.00 1 1 1
Mg core   -0.83473    2.09949   10.49745    2.00000 1.00 1 1 1
Mg core   -0.52488    2.09949   14.69642    2.00000 1.00 1 1 1
Mg core    0.21503    6.29847    2.09949    2.00000 1.00 1 1 1
Mg core    0.52487    6.29847    6.29847    2.00000 1.00 0 0 0
Mg core   -0.52489    6.29847   10.49745    2.00000 1.00 0 0 0
Mg core   -0.21503    6.29847   14.69642    2.00000 1.00 1 1 1
Mg core   -0.21502   10.49745    2.09949    2.00000 1.00 1 1 1
Mg core   -0.52486   10.49745    6.29847    2.00000 1.00 0 0 0
Mg core    0.52487   10.49745   10.49745    2.00000 1.00 0 0 0
Mg core    0.21502   10.49745   14.69642    2.00000 1.00 1 1 1
Mg core   -0.52487   14.69642    2.09949    2.00000 1.00 1 1 1
Mg core   -0.83472   14.69642    6.29847    2.00000 1.00 1 1 1
Mg core    0.83473   14.69642   10.49745    2.00000 1.00 1 1 1
Mg core    0.52487   14.69642   14.69642    2.00000 1.00 1 1 1
Mg core    2.71919    0.00000    2.09949    2.00000 1.00 1 1 1
Mg core    2.98552    0.00000    6.29847    2.00000 1.00 1 1 1
Mg core    1.21345    0.00000   10.49745    2.00000 1.00 1 1 1
Mg core    1.47978    0.00000   14.69642    2.00000 1.00 1 1 1
Mg core    2.49245    4.19898    2.09949    2.00000 1.00 1 1 1
Mg core    2.83938    4.19898    6.29847    2.00000 1.00 0 0 0
Mg core    1.35958    4.19898   10.49745    2.00000 1.00 0 0 0
Mg core    1.70653    4.19898   14.69642    2.00000 1.00 1 1 1
Mg core    2.09949    8.39796    2.09949    2.00000 1.00 1 1 1
Mg core    2.09950    8.39796    6.29847    2.00000 1.00 0 0 0
Mg core    2.09948    8.39796   10.49745    2.00000 1.00 0 0 0
Mg core    2.09948    8.39796   14.69642    2.00000 1.00 1 1 1
Mg core    1.70654   12.59693    2.09949    2.00000 1.00 1 1 1
Mg core    1.35960   12.59693    6.29847    2.00000 1.00 0 0 0
Mg core    2.83939   12.59693   10.49745    2.00000 1.00 0 0 0
Mg core    2.49245   12.59693   14.69642    2.00000 1.00 1 1 1
Mg core    2.52954    2.09949    0.00000    2.00000 1.00 1 1 1
Mg core    2.75628    2.09949    4.19898    2.00000 1.00 1 1 1
Mg core    3.14923    2.09949    8.39796    2.00000 1.00 1 1 1
Mg core    1.44269    2.09949   12.59693    2.00000 1.00 1 1 1
Mg core    2.26321    6.29847    0.00000    2.00000 1.00 1 1 1
Mg core    2.40934    6.29847    4.19898    2.00000 1.00 0 0 0
Mg core    3.14923    6.29847    8.39796    2.00000 1.00 0 0 0
Mg core    1.78963    6.29847   12.59693    2.00000 1.00 0 0 0
Mg core    1.93578   10.49745    0.00000    2.00000 1.00 1 1 1
Mg core    1.78964   10.49745    4.19898    2.00000 1.00 0 0 0
Mg core    1.04975   10.49745    8.39796    2.00000 1.00 0 0 0
Mg core    2.40934   10.49745   12.59693    2.00000 1.00 0 0 0
Mg core    1.66945   14.69642    0.00000    2.00000 1.00 1 1 1
Mg core    1.44270   14.69642    4.19898    2.00000 1.00 1 1 1
Mg core    1.04974   14.69642    8.39796    2.00000 1.00 1 1 1
Mg core    2.75628   14.69642   12.59693    2.00000 1.00 1 1 1
O  core    2.62436    2.09949    2.09949    0.84819 1.00 1 1 1
O  core    2.93421    2.09949    6.29847    0.84819 1.00 1 1 1
O  core    1.26476    2.09949   10.49745    0.84819 1.00 1 1 1
O  core    1.57461    2.09949   14.69642    0.84819 1.00 1 1 1
O  core    2.31451    6.29847    2.09949    0.84819 1.00 1 1 1
O  core    2.62436    6.29847    6.29847    0.84819 1.00 0 0 0
O  core    1.57460    6.29847   10.49745    0.84819 1.00 0 0 0
O  core    1.88446    6.29847   14.69642    0.84819 1.00 1 1 1
O  core    1.88447   10.49745    2.09949    0.84819 1.00 1 1 1
O  core    1.57463   10.49745    6.29847    0.84819 1.00 0 0 0
O  core    2.62436   10.49745   10.49745    0.84819 1.00 0 0 0
O  core    2.31451   10.49745   14.69642    0.84819 1.00 1 1 1
O  core    1.57462   14.69642    2.09949    0.84819 1.00 1 1 1
O  core    1.26477   14.69642    6.29847    0.84819 1.00 1 1 1
O  core    2.93422   14.69642   10.49745    0.84819 1.00 1 1 1
O  core    2.62436   14.69642   14.69642    0.84819 1.00 1 1 1
O  core    2.62436    0.00000    0.00000    0.84819 1.00 1 1 1
O  core    2.83939    0.00000    4.19898    0.84819 1.00 1 1 1
O  core    3.14924    0.00000    8.39796    0.84819 1.00 1 1 1
O  core    1.35959    0.00000   12.59693    0.84819 1.00 1 1 1
O  core    2.40934    4.19898    0.00000    0.84819 1.00 1 1 1
O  core    2.62436    4.19898    4.19898    0.84819 1.00 1 1 1
O  core    3.14923    4.19898    8.39796    0.84819 1.00 0 0 0
O  core    1.57461    4.19898   12.59693    0.84819 1.00 1 1 1
O  core    2.09949    8.39796    0.00000    0.84819 1.00 1 1 1
O  core    2.09950    8.39796    4.19898    0.84819 1.00 0 0 0
O  core    2.62436    8.39796    8.39796    0.84819 1.00 0 0 0
O  core    2.09948    8.39796   12.59693    0.84819 1.00 0 0 0
O  core    1.78964   12.59693    0.00000    0.84819 1.00 1 1 1
O  core    1.57462   12.59693    4.19898    0.84819 1.00 1 1 1
O  core    1.04975   12.59693    8.39796    0.84819 1.00 0 0 0
O  core    2.62436   12.59693   12.59693    0.84819 1.00 1 1 1
O  core    0.43005    2.09949    0.00000    0.84819 1.00 1 1 1
O  core    0.65679    2.09949    4.19898    0.84819 1.00 1 1 1
O  core    1.04975    2.09949    8.39796    0.84819 1.00 1 1 1
O  core   -0.65680    2.09949   12.59693    0.84819 1.00 1 1 1
O  core    0.16372    6.29847    0.00000    0.84819 1.00 1 1 1
O  core    0.30985    6.29847    4.19898    0.84819 1.00 0 0 0
O  core    1.04974    6.29847    8.39796    0.84819 1.00 0 0 0
O  core   -0.30986    6.29847   12.59693    0.84819 1.00 0 0 0
O  core   -0.16371   10.49745    0.00000    0.84819 1.00 1 1 1
O  core   -0.30984   10.49745    4.19898    0.84819 1.00 0 0 0
O  core   -1.04974   10.49745    8.39796    0.84819 1.00 0 0 0
O  core    0.30985   10.49745   12.59693    0.84819 1.00 0 0 0
O  core   -0.43004   14.69642    0.00000    0.84819 1.00 1 1 1
O  core   -0.65679   14.69642    4.19898    0.84819 1.00 1 1 1
O  core   -1.04975   14.69642    8.39796    0.84819 1.00 1 1 1
O  core    0.65679   14.69642   12.59693    0.84819 1.00 1 1 1
O  core    0.61970    0.00000    2.09949    0.84819 1.00 1 1 1
O  core    0.88603    0.00000    6.29847    0.84819 1.00 1 1 1
O  core   -0.88604    0.00000   10.49745    0.84819 1.00 1 1 1
O  core   -0.61971    0.00000   14.69642    0.84819 1.00 1 1 1
O  core    0.39296    4.19898    2.09949    0.84819 1.00 1 1 1
O  core    0.73990    4.19898    6.29847    0.84819 1.00 0 0 0
O  core   -0.73991    4.19898   10.49745    0.84819 1.00 0 0 0
O  core   -0.39296    4.19898   14.69642    0.84819 1.00 1 1 1
O  core    0.00000    8.39796    2.09949    0.84819 1.00 1 1 1
O  core    0.00001    8.39796    6.29847    0.84819 1.00 0 0 0
O  core   -0.00001    8.39796   10.49745    0.84819 1.00 0 0 0
O  core   -0.00000    8.39796   14.69642    0.84819 1.00 1 1 1
O  core   -0.39295   12.59693    2.09949    0.84819 1.00 1 1 1
O  core   -0.73989   12.59693    6.29847    0.84819 1.00 0 0 0
O  core    0.73990   12.59693   10.49745    0.84819 1.00 0 0 0
O  core    0.39296   12.59693   14.69642    0.84819 1.00 1 1 1
O  shel    2.62436    2.09949    2.09949   -2.84819 1.00 1 1 1
O  shel    2.93421    2.09949    6.29847   -2.84819 1.00 1 1 1
O  shel    1.26476    2.09949   10.49745   -2.84819 1.00 1 1 1
O  shel    1.57461    2.09949   14.69642   -2.84819 1.00 1 1 1
O  shel    2.31451    6.29847    2.09949   -2.84819 1.00 1 1 1
O  shel    2.62436    6.29847    6.29847   -2.84819 1.00 0 0 0
O  shel    1.57460    6.29847   10.49745   -2.84819 1.00 0 0 0
O  shel    1.88446    6.29847   14.69642   -2.84819 1.00 1 1 1
O  shel    1.88447   10.49745    2.09949   -2.84819 1.00 1 1 1
O  shel    1.57463   10.49745    6.29847   -2.84819 1.00 0 0 0
O  shel    2.62436   10.49745   10.49745   -2.84819 1.00 0 0 0
O  shel    2.31451   10.49745   14.69642   -2.84819 1.00 1 1 1
O  shel    1.57462   14.69642    2.09949   -2.84819 1.00 1 1 1
O  shel    1.26477   14.69642    6.29847   -2.84819 1.00 1 1 1
O  shel    2.93422   14.69642   10.49745   -2.84819 1.00 1 1 1
O  shel    2.62436   14.69642   14.69642   -2.84819 1.00 1 1 1
O  shel    2.62436    0.00000    0.00000   -2.84819 1.00 1 1 1
O  shel    2.83939    0.00000    4.19898   -2.84819 1.00 1 1 1
O  shel    3.14924    0.00000    8.39796   -2.84819 1.00 1 1 1
O  shel    1.35959    0.00000   12.59693   -2.84819 1.00 1 1 1
O  shel    2.40934    4.19898    0.00000   -2.84819 1.00 1 1 1
O  shel    2.62436    4.19898    4.19898   -2.84819 1.00 1 1 1
O  shel    3.14923    4.19898    8.39796   -2.84819 1.00 0 0 0
O  shel    1.57461    4.19898   12.59693   -2.84819 1.00 1 1 1
O  shel    2.09949    8.39796    0.00000   -2.84819 1.00 1 1 1
O  shel    2.09950    8.39796    4.19898   -2.84819 1.00 0 0 0
O  shel    2.62436    8.39796    8.39796   -2.84819 1.00 0 0 0
O  shel    2.09948    8.39796   12.59693   -2.84819 1.00 0 0 0
O  shel    1.78964   12.59693    0.00000   -2.84819 1.00 1 1 1
O  shel    1.57462   12.59693    4.19898   -2.84819 1.00 1 1 1
O  shel    1.04975   12.59693    8.39796   -2.84819 1.00 0 0 0
O  shel    2.62436   12.59693   12.59693   -2.84819 1.00 1 1 1
O  shel    0.43005    2.09949    0.00000   -2.84819 1.00 1 1 1
O  shel    0.65679    2.09949    4.19898   -2.84819 1.00 1 1 1
O  shel    1.04975    2.09949    8.39796   -2.84819 1.00 1 1 1
O  shel   -0.65680    2.09949   12.59693   -2.84819 1.00 1 1 1
O  shel    0.16372    6.29847    0.00000   -2.84819 1.00 1 1 1
O  shel    0.30985    6.29847    4.19898   -2.84819 1.00 0 0 0
O  shel    1.04974    6.29847    8.39796   -2.84819 1.00 0 0 0
O  shel   -0.30986    6.29847   12.59693   -2.84819 1.00 0 0 0
O  shel   -0.16371   10.49745    0.00000   -2.84819 1.00 1 1 1
O  shel   -0.30984   10.49745    4.19898   -2.84819 1.00 0 0 0
O  shel   -1.04974   10.49745    8.39796   -2.84819 1.00 0 0 0
O  shel    0.30985   10.49745   12.59693   -2.84819 1.00 0 0 0
O  shel   -0.43004   14.69642    0.00000   -2.84819 1.00 1 1 1
O  shel   -0.65679   14.69642    4.19898   -2.84819 1.00 1 1 1
O  shel   -1.04975   14.69642    8.39796   -2.84819 1.00 1 1 1
O  shel    0.65679   14.69642   12.59693   -2.84819 1.00 1 1 1
O  shel    0.61970    0.00000    2.09949   -2.84819 1.00 1 1 1
O  shel    0.88603    0.00000    6.29847   -2.84819 1.00 1 1 1
O  shel   -0.88604    0.00000   10.49745   -2.84819 1.00 1 1 1
O  shel   -0.61971    0.00000   14.69642   -2.84819 1.00 1 1 1
O  shel    0.39296    4.19898    2.09949   -2.84819 1.00 1 1 1
O  shel    0.73990    4.19898    6.29847   -2.84819 1.00 0 0 0
O  shel   -0.73991    4.19898   10.49745   -2.84819 1.00 0 0 0
O  shel   -0.39296    4.19898   14.69642   -2.84819 1.00 1 1 1
O  shel    0.00000    8.39796    2.09949   -2.84819 1.00 1 1 1
O  shel    0.00001    8.39796    6.29847   -2.84819 1.00 0 0 0
O  shel   -0.00001    8.39796   10.49745   -2.84819 1.00 0 0 0
O  shel   -0.00000    8.39796   14.69642   -2.84819 1.00 1 1 1
O  shel   -0.39295   12.59693    2.09949   -2.84819 1.00 1 1 1
O  shel   -0.73989   12.59693    6.29847   -2.84819 1.00 0 0 0
O  shel    0.73990   12.59693   10.49745   -2.84819 1.00 0 0 0
O  shel    0.39296   12.59693   14.69642   -2.84819 1.00 1 1 1
buck
Mg    core O     shel  1428.5000     0.294530 .00000E+00  0.000 10.000
buck     
O     shel O     shel  22764.000     0.149000 27.880      0.000 10.000
spring
O      74.920380    
dump every example32.grs
