# 
# Keywords:
# 
opti conv 
# 
# Options:
# 
scell
   4.900   4.900 120.0
sfractional region  1
Al    core 0.0000000 0.0000000 14.087856 3.00000000 1.00000 0.00000             
O     core 0.2936913 0.9867075 12.668866 -2.0000000 1.00000 0.00000             
O     core 0.0132939 0.3069836 12.668874 -2.0000000 1.00000 0.00000             
O     core 0.6930124 0.7063072 12.668867 -2.0000000 1.00000 0.00000             
O     core 0.0371010 0.6689158 14.871229 -2.0000000 1.00000 0.00000             
O     core 0.3310835 0.3681844 14.871239 -2.0000000 1.00000 0.00000             
O     core 0.6318148 0.9628987 14.871233 -2.0000000 1.00000 0.00000             
Al    core 0.9999973 0.9999991 11.413066 3.00000000 1.00000 0.00000             
Al    core 2/3       1/3       11.689671 3.00000000 1.00000 0.00000             
Al    core 1/3       2/3       13.524060 3.00000000 1.00000 0.00000             
Al    core 2/3       1/3       15.621914 3.00000000 1.00000 0.00000             
Al    core 1/3       2/3       16.267455 3.00000000 1.00000 0.00000             
O     core 0.3392928 0.3331130 10.667445 -2.0000000 1.00000 0.00000             
O     core 0.6668739 0.0061796 10.667503 -2.0000000 1.00000 0.00000             
O     core 0.9938081 0.6606877 10.667531 -2.0000000 1.00000 0.00000             
O     core 0.9628998 0.3310835 17.018141 -2.0000000 1.00000 0.00000             
O     core 0.6689173 0.6318149 17.018131 -2.0000000 1.00000 0.00000             
O     core 0.3681860 0.0371006 17.018137 -2.0000000 1.00000 0.00000             
Al    core 2/3       1/3       21.479755 3.00000000 1.00000 0.00000             
Al    core 1/3       2/3       10.409614 3.00000000 1.00000 0.00000             
Al    core 0.0000008 0.9999994 17.801514 3.00000000 1.00000 0.00000             
Al    core 2/3       1/3       18.365310 3.00000000 1.00000 0.00000             
O     core 0.6607079 0.6668862 21.221924 -2.0000000 1.00000 0.00000             
O     core 0.3331269 0.9938196 21.221867 -2.0000000 1.00000 0.00000             
O     core 0.0061927 0.3393117 21.221839 -2.0000000 1.00000 0.00000             
O     core 0.7063094 0.0132918 19.220504 -2.0000000 1.00000 0.00000             
O     core 0.9867069 0.6930157 19.220496 -2.0000000 1.00000 0.00000             
O     core 0.3069884 0.2936921 19.220503 -2.0000000 1.00000 0.00000             
Al    core 0.0000035 0.0000002 20.476304 3.00000000 1.00000 0.00000             
Al    core 1/3       2/3       20.199699 3.00000000 1.00000 0.00000             
#
#  Apply electric field in z direction normal to surface
#
field 2.5 z
#
species   2
Al     core    3.000000                  
O      core   -2.000000                  
buck     
O     core Al    core  2409.50500     0.264900 0.0000000      0.00 10.00
buck     
O     core O     core  25.4100000     0.693700  32.32000      0.00 12.00
dump every   1 example38.grs                                           
