opti conv 
svectors
4.235384  0.000000
0.000000  4.235384
cartesian region 1
Mg   core    2.11769    2.11769   -4.23538 2.00000000 1.00000 0.00000
Mg   core   -0.00000   -0.00000   -4.23538 2.00000000 1.00000 0.00000
O    core    2.11769    0.00000   -4.23538 0.93450000 1.00000 0.00000
O    core    0.00000    2.11769   -4.23538 0.93450000 1.00000 0.00000
O    shel    2.11769    0.00000   -4.23538 0.93450000 1.00000 0.00000
O    shel    0.00000    2.11769   -4.23538 0.93450000 1.00000 0.00000
cart region 2
Mg   core    2.11769    0.00000   -6.35308 2.00000000 1.00000 0.00000
Mg   core    0.00000    2.11769   -6.35308 2.00000000 1.00000 0.00000
O    core    2.11769    2.11769   -6.35308 0.93450000 1.00000 0.00000
O    core    0.00000    0.00000   -6.35308 0.93450000 1.00000 0.00000
O    shel    2.11769    2.11769   -6.35308 0.93450000 1.00000 0.00000
O    shel    0.00000    0.00000   -6.35308 0.93450000 1.00000 0.00000
cartesian region 3 rigid z
Mg   core    2.12769    0.02000   -2.11769 2.00000000 1.00000 0.00000
Mg   core    0.01000    2.13769   -2.11769 2.00000000 1.00000 0.00000
O    core    2.12769    2.13769   -2.11769 0.93450000 1.00000 0.00000
O    core    0.01000    0.02000   -2.11769 0.93450000 1.00000 0.00000
O    shel    2.12769    2.13769   -2.11769 0.93450000 1.00000 0.00000
O    shel    0.01000    0.02000   -2.11769 0.93450000 1.00000 0.00000
species
Mg     core    2.000000
O      core    0.934500
O      shel   -2.934500
buck
Mg    core O     shel  1346.60000     0.298400 0.0000000      0.000  8.000
buck
O     shel O     shel  22764.3000     0.149000  20.37000      0.000  8.000
spring
O      51.708000
dump every example27.grs
