opti conv 

name diamond111

svectors
5.042909  -0.000000
2.521455  -4.367287
cartesian region 1
C    core    0.000000   -0.000000   -6.176276    0.0000000  1.0
C    core    0.000000   -0.000000   -4.632207    0.0000000  1.0
C    core    5.042909   -1.455762   -4.117517    0.0000000  1.0
C    core    3.782182   -3.639406   -4.117517    0.0000000  1.0
C    core    1.260727   -3.639406   -4.117517    0.0000000  1.0
C    core    2.521455   -1.455762   -4.117517    0.0000000  1.0
C    core    2.521455   -1.455762   -2.573449    0.0000000  1.0
C    core    5.042910   -1.455763   -2.573448    0.0000000  1.0
C    core    3.782182   -3.639406   -2.573448    0.0000000  1.0
C    core    1.260727   -3.639406   -2.573448    0.0000000  1.0
C    core    2.521454   -2.911525   -2.058759    0.0000000  1.0
C    core    3.782182   -0.727881   -2.058759    0.0000000  1.0
C    core    1.260727   -0.727881   -2.058759    0.0000000  1.0
C    core    2.521455   -2.911525   -0.514690    0.0000000  1.0
C    core    3.782182   -0.727881   -0.514690    0.0000000  1.0
C    core    1.260727   -0.727881   -0.514690    0.0000000  1.0
cartesian region 2
C    core    2.521455   -1.455762  -10.293795    0.0000000  1.0
C    core    2.521455   -1.455762   -8.749725    0.0000000  1.0
C    core    2.521454   -2.911525   -8.235036    0.0000000  1.0
C    core    3.782182   -0.727881   -8.235036    0.0000000  1.0
C    core    1.260727   -0.727881   -8.235036    0.0000000  1.0
C    core    5.042909   -2.911525   -8.235035    0.0000000  1.0
C    core    2.521455   -2.911525   -6.690967    0.0000000  1.0
C    core    3.782182   -0.727881   -6.690967    0.0000000  1.0
C    core    1.260727   -0.727881   -6.690967    0.0000000  1.0
C    core    5.042909   -2.911525   -6.690966    0.0000000  1.0
C    core    2.521454   -0.000000   -6.176276    0.0000000  1.0
C    core    1.260727   -2.183644   -6.176276    0.0000000  1.0
C    core    3.782182   -2.183644   -6.176276    0.0000000  1.0
C    core    2.521454   -0.000000   -4.632207    0.0000000  1.0
C    core    1.260727   -2.183644   -4.632207    0.0000000  1.0
C    core    3.782182   -2.183643   -4.632207    0.0000000  1.0

brenner
dhkl 2.058759

sbulkenergy -117.901405

