phon nofreq 
cell
   4.212000   4.212000   4.212000  90.000000  90.000000  90.000000
fractional
Mg   core  0.000000   0.000000   0.000000 
Mg   core  0.000000   0.500000   0.500000 
Mg   core  0.500000   0.000000   0.500000 
Mg   core  0.500000   0.500000   0.000000 
O    core  0.500000   0.500000   0.500000 
O    core  0.500000   0.000000   0.000000 
O    core  0.000000   0.500000   0.000000 
O    core  0.000000   0.000000   0.500000 
O    shel  0.500000   0.500000   0.500000 
O    shel  0.500000   0.000000   0.000000 
O    shel  0.000000   0.500000   0.000000 
O    shel  0.000000   0.000000   0.500000 
species
Mg core 2.0
O  core 0.86902
O  shel -2.86902
buck
O    shel Mg   core    1295.553402 0.300000    0.00000  0.000  8.000
buck
O    shel O    shel   22764.000000 0.149000   27.88000  0.000 12.000
spring
O 74.92
shrink
4 4 4
dispersion
0.0 0.0 0.0 to 0.5 0.5 0.5
output phon example5
