# 
# Keywords:
# 
opti conv mole cosmic 
# 
# Options:
# 
# Surface energy =     0.269777 J/m2
scell
   5.551816   5.551816  90.000000
sfractional region  1
H     core 0.3587559 0.1412446 -0.094541 0.41500000 1.00000 0.00000         %   
H     core 0.6412446 0.8587559 -0.094541 0.41500000 1.00000 0.00000         %   
N     core 0.3563436 0.1436566 -1.117330 -0.8300000 1.00000 0.00000         %   
N     core 0.6436566 0.8563436 -1.117330 -0.8300000 1.00000 0.00000         %   
H     core 0.2379472 0.2620529 -1.587207 0.41500000 1.00000 0.00000         %   
H     core 0.7620529 0.7379472 -1.587207 0.41500000 1.00000 0.00000         %   
C     core 0.5000001 0.0000001 -1.795797 0.38000000 1.00000 0.00000         %   
O     core 0.0000000 0.5000000 -1.918294 -0.3800000 1.00000 0.00000         %   
O     core 0.5000000 1.0000000 -3.026698 -0.3800000 1.00000 0.00000         %   
C     core 0.0000000 0.5000000 -3.150493 0.38000000 1.00000 0.00000         %   
H     core 0.7386731 0.2386731 -3.378233 0.41500000 1.00000 0.00000         %   
H     core 0.2613268 0.7613268 -3.378233 0.41500000 1.00000 0.00000         %   
N     core 0.8571565 0.3571565 -3.833191 -0.8300000 1.00000 0.00000         %   
N     core 0.1428434 0.6428434 -3.833191 -0.8300000 1.00000 0.00000         %   
H     core 0.8621075 0.3621075 -4.868580 0.41500000 1.00000 0.00000         %   
H     core 0.1378924 0.6378924 -4.868580 0.41500000 1.00000 0.00000         %   
sfractional region  2 rigid    
H     core 0.3621600 0.1378399 -4.788570 0.41500000 1.00000 0.00000             
H     core 0.6378399 0.8621600 -4.788570 0.41500000 1.00000 0.00000             
N     core 0.3570883 0.1429114 -5.824303 -0.8300000 1.00000 0.00000             
N     core 0.6429114 0.8570883 -5.824303 -0.8300000 1.00000 0.00000             
H     core 0.2383647 0.2616351 -6.276516 0.41500000 1.00000 0.00000             
H     core 0.7616351 0.7383647 -6.276516 0.41500000 1.00000 0.00000             
C     core 0.5000000 0.0000000 -6.505131 0.38000000 1.00000 0.00000             
O     core 0.0000000 0.5000000 -6.631274 -0.3800000 1.00000 0.00000             
O     core 0.5000000 0.0000000 -7.736193 -0.3800000 1.00000 0.00000             
C     core 0.0000000 0.5000000 -7.862336 0.38000000 1.00000 0.00000             
H     core 0.7383647 0.2383647 -8.090951 0.41500000 1.00000 0.00000             
H     core 0.2616351 0.7616351 -8.090951 0.41500000 1.00000 0.00000             
N     core 0.8570883 0.3570883 -8.543163 -0.8300000 1.00000 0.00000             
N     core 0.1429114 0.6429114 -8.543163 -0.8300000 1.00000 0.00000             
H     core 0.8621600 0.3621600 -9.578897 0.41500000 1.00000 0.00000             
H     core 0.1378399 0.6378399 -9.578897 0.41500000 1.00000 0.00000             
sbulkenergy       -62.07232300
species   4
C      core    0.380000                  
O      core   -0.380000                  
N      core   -0.830000                  
H      core    0.415000                  
morse intra bond
C     core O     core 6.2880000     2.0600      1.23000  0.0000
morse intra bond
C     core N     core 4.2060000     2.0000      1.32000  0.0000
morse intra bond
H     core N     core 3.8160000     2.2800      1.02600  0.0000
lennard 12  6 inter     
C     core O     core  39031.570      35.266000      0.000 18.000
lennard 12  6 inter     
C     core N     core  112494.67      55.387000      0.000 18.000
lennard 12  6 inter     
O     core O     core  11833.864      21.633000      0.000 18.000
lennard 12  6 inter     
N     core O     core  34106.919      33.977000      0.000 18.000
lennard 12  6 inter     
N     core N     core  98301.108      53.362000      0.000 18.000
lennard 12  6 inter     
C     core C     core  128737.61      57.488000      0.000 18.000
three bond intra
C     core N     core O     core 5.8970     121.00    
three bond intra
N     core H     core C     core 3.2520     120.00    
three bond intra
N     core H     core H     core 2.8620     120.00    
three bond intra
C     core N     core N     core 8.8460     118.00    
torsion bond intra
O     cor C     cor N     cor H     cor .26020      -2 .00000    
torsion bond intra
N     cor C     cor N     cor H     cor .21700E-02  -2 .00000    
torsion      
O     cor C     cor N     cor N     cor .43400      -2 .00000     &
 1.60 1.60 3.00 0.00
element
covalent  1  0.3300
covalent  6  0.8700
covalent  7  0.7500
covalent  8  0.7300
end
solventepsilon  78.400000
solventradius    1.000000  0.100000
pointsperatom  110
segments       110
solventrmax     10.000000   1.000000
rangeforsmooth   0.10000
dump every   1 example42.res                                                
