cost
cell
   4.492300   4.492300   2.893000  90.000000  90.000000  90.000000
contents
Ti1    c    0.00000     0.00000     0.00000  4.0
Ti2    c    0.50214     0.50235     0.50000  4.0
O1     c    0.68007     0.68010     1.00000 -2.0
O2     c    0.82607     0.17776     0.50000 -2.0
O3     c    0.17795     0.82588     0.50000 -2.0
O4     c    0.32824     0.32827     1.00000 -2.0
buck
Ti core O core  754.200 0.3879  0.00 0.0 10.0
buck
O  core O core 22764.00 0.1490 27.88 0.0 12.0
