opti conp free zsisa
cell
   4.914600   4.914600   5.406000  90.000000  90.000000 120.000000
fractional    3
Si    core 0.46980000 0.00000000 0.33333333   4.000000 1.0000 0.00000
O     core 0.41450000 0.26620000 0.21443000   0.869020 1.0000 0.00000
O     shel 0.43307539 0.26490851 0.20500814  -2.869020 1.0000 0.00000
space
152
shrink 5 5 5
species   3
Si     core    4.000000
O      core    0.869020
O      shel   -2.869020
buck
Si    core O     shel    1271.514387 0.320520    5.90617  0.000 12.000
buck
O     shel O     shel   22764.000000 0.149000   27.87900  0.000 12.000
spring
O        79.073994
harmonic
O     shel O     shel     2.302730     2.433515     0.000000  0.000  3.000
cutp 12.0 2.0
rspeed    0.1000
temperature 300
dump every   1 example25.grs
