Si 
   1.0
     0.0000000000000000    5.4661988437747855    5.4661988437747855
     5.4661988437747855    0.0000000000000000    5.4661988437747855
     8.1992982656621791    8.1992982656621791    0.0000000000000000
  24
Direct
  0.4362064012828734  0.4375000000000001  0.2916666666666668
  0.9374999999999999  0.4375000000000001  0.2916666666666667
  0.4374999999999999  0.9374999999999999  0.2916666666666667
  0.9374999999999998  0.9374999999999999  0.2916666666666667
  0.4374999999999999  0.4375000000000000  0.6249999999999999
  0.9375000000000000  0.4374999999999999  0.6249999999999998
  0.4374999999999998  0.9375000000000001  0.6250000000000000
  0.9374999999999998  0.9374999999999999  0.6250000000000002
  0.4374999999999999  0.4375000000000000  0.9583333333333334
  0.9374999999999998  0.4375000000000001  0.9583333333333333
  0.4375000000000000  0.9374999999999999  0.9583333333333333
  0.9374999999999998  0.9374999999999999  0.9583333333333333
  0.0625000000000000  0.0625000000000000  0.0416666666666667
  0.5625000000000000  0.0625000000000000  0.0416666666666667
  0.0624999999999999  0.5624999999999999  0.0416666666666667
  0.5624999999999999  0.5625000000000000  0.0416666666666666
  0.0625000000000000  0.0625000000000000  0.3750000000000000
  0.5625000000000000  0.0624999999999999  0.3750000000000000
  0.0624999999999998  0.5625000000000000  0.3750000000000000
  0.5624999999999999  0.5625000000000000  0.3750000000000001
  0.0625000000000000  0.0625000000000000  0.7083333333333334
  0.5625000000000000  0.0624999999999999  0.7083333333333335
  0.0624999999999999  0.5625000000000000  0.7083333333333334
  0.5624999999999999  0.5625000000000000  0.7083333333333334
